\* Problem: Unknown *\

Maximize
 obj: + xp_0_0 + xp_0_1 + xp_0_2 + xp_0_3 + xp_0_4 + xp_1_0 + xp_1_1
 + xp_2_0 + xp_2_1 + xp_2_2 + xp_3_0 + xp_3_1 + xp_4_0 + xp_5_0 + xp_6_0
 + xp_6_1 + xp_6_2 + xp_6_3 + xp_7_0 + xp_8_0 + xp_9_0 + xp_10_0
 + xp_11_0 + xp_11_1 + xp_11_2 + xp_11_3 + xp_12_0 + xp_13_0 + xp_13_1
 + xp_14_0 + xp_14_1 + xp_15_0 + xp_16_0 + xp_17_0 + xp_17_1 + xp_17_2
 + xp_17_3 + xp_17_4 + xp_18_0 + xp_18_1 + xp_18_2 + xp_18_3 + xp_19_0
 + xp_19_1 + xp_19_2 + xp_19_3 + xp_19_4 + xp_20_0 + xp_20_1 + xp_20_2
 + xp_20_3 + xp_21_0 + xp_21_1 + xp_21_2 + xp_21_3 + xp_22_0 + xp_22_1
 + xp_22_2 + xp_23_0 + xp_23_1 + xp_23_2

Subject To
 r_1: 0 xp_0_0 <= 30
 r_2: + xp_18_3 + xp_6_1 + xp_2_2 <= 30
 r_3: + xp_21_3 + xp_18_2 + xp_6_2 <= 30
 r_4: + xp_17_4 + xp_15_0 <= 30
 r_5: + xp_18_0 <= 29.4574468085106
 r_6: + xp_18_1 <= 30
 r_7: + xp_20_1 <= 30
 r_8: + xp_22_1 + xp_17_3 + xp_11_1 <= 30
 r_9: + xp_11_3 + xp_6_3 + xp_3_1 <= 30
 r_10: + xp_3_0 <= 30
 r_11: + xp_18_1 + xp_11_2 <= 29.4574468085106
 r_12: + xp_11_0 <= 30
 r_13: 0 xp_0_0 <= 30
 r_14: + xp_19_2 + xp_14_0 + xp_0_3 + xp_0_1 <= 30
 r_15: + xp_21_0 + xp_19_1 <= 30
 r_16: + xp_21_1 + xp_0_4 + xp_0_2 <= 30
 r_17: + xp_0_0 <= 29.4574468085106
 r_18: + xp_21_3 + xp_4_0 <= 30
 r_19: + xp_19_0 <= 30
 r_20: + xp_21_2 + xp_19_4 + xp_19_3 + xp_14_1 <= 30
 r_21: + xp_20_2 <= 30
 r_22: + xp_20_3 <= 30
 r_23: + xp_23_2 + xp_22_1 <= 30
 r_24: + xp_17_3 + xp_6_1 + xp_0_3 <= 30
 r_25: 0 xp_0_0 <= 30
 r_26: + xp_18_3 + xp_0_1 <= 29.4574468085106
 r_27: + xp_11_1 <= 30
 r_28: + xp_19_3 + xp_19_2 <= 30
 r_29: + xp_20_3 <= 30
 r_30: + xp_2_0 <= 30
 r_31: + xp_18_2 + xp_6_3 + xp_6_2 + xp_3_1 <= 30
 r_32: + xp_2_1 <= 30
 r_33: + xp_11_3 + xp_2_2 <= 30
 r_34: + xp_19_1 <= 30
 r_35: 0 xp_0_0 <= 30
 r_36: + xp_9_0 <= 30
 r_37: + xp_21_1 + xp_13_1 <= 30
 r_38: + xp_23_2 + xp_1_1 <= 30
 r_39: + xp_17_2 + xp_0_4 <= 30
 r_40: + xp_0_2 <= 29.4574468085106
 r_41: + xp_12_0 <= 30
 r_42: + xp_21_1 <= 30
 r_43: + xp_16_0 <= 30
 r_44: + xp_23_1 <= 30
 r_45: + xp_17_3 + xp_3_1 <= 30
 r_46: + xp_18_2 + xp_0_3 <= 29.4574468085106
 r_47: + xp_22_2 + xp_13_1 <= 30
 r_48: + xp_13_0 <= 30
 r_49: + xp_17_1 <= 30
 r_50: 0 xp_0_0 <= 29.4574468085106
 r_51: + xp_1_1 <= 30
 r_52: + xp_8_0 <= 30
 r_53: + xp_1_0 <= 30
 r_54: + xp_0_4 <= 29.4574468085106
 r_55: 0 xp_0_0 <= 30
 r_56: 0 xp_0_0 <= 30
 r_57: 0 xp_0_0 <= 29.4574468085106
 r_58: + xp_23_2 + xp_5_0 <= 29.4574468085106
 r_59: + xp_22_0 + xp_17_2 <= 29.4574468085106
 r_60: + xp_23_1 + xp_6_0 <= 29.4574468085106
 r_61: + xp_23_0 + xp_22_2 + xp_17_1 <= 29.4574468085106
 r_62: + xp_17_0 <= 29.4574468085106
 r_63: + xp_17_4 + xp_11_2 + xp_6_2 + xp_6_1 <= 29.4574468085106
 r_64: + xp_22_1 + xp_17_3 + xp_6_3 <= 29.4574468085106
 r_65: + xp_20_3 + xp_20_2 + xp_19_3 + xp_14_1 + xp_2_1 <= 30
 r_66: + xp_21_2 + xp_7_0 <= 30
 r_67: + xp_20_1 + xp_19_4 + xp_10_0 <= 30
 r_68: + xp_20_0 <= 30

Bounds
 0 <= xp_0_0 <= 27.7830151797782
 0 <= xp_0_1 <= 8.44337462441498
 0 <= xp_0_2 <= 15.7075519117138
 0 <= xp_0_3 <= 3.20752398717705
 0 <= xp_0_4 <= 5.23585063723793
 0 <= xp_1_0 <= 20.2830047080769
 0 <= xp_1_1 <= 13.5220031387179
 0 <= xp_2_0 <= 22.374213924291
 0 <= xp_2_1 <= 5.23585063723793
 0 <= xp_2_2 <= 5.72324550135713
 0 <= xp_3_0 <= 23.8207433232433
 0 <= xp_3_1 <= 7.15407782009897
 0 <= xp_4_0 <= 25.1572151418008
 0 <= xp_5_0 <= 25.1572151418008
 0 <= xp_6_0 <= 9.05659745104829
 0 <= xp_6_1 <= 4.52829872552414
 0 <= xp_6_2 <= 4.52829872552414
 0 <= xp_6_3 <= 4.52829872552414
 0 <= xp_7_0 <= 21.6980980598032
 0 <= xp_8_0 <= 19.4968417348956
 0 <= xp_9_0 <= 18.0817483831693
 0 <= xp_10_0 <= 18.0817483831693
 0 <= xp_11_0 <= 26.1792531861896
 0 <= xp_11_1 <= 10.4717012744759
 0 <= xp_11_2 <= 10.4717012744759
 0 <= xp_11_3 <= 5.23585063723793
 0 <= xp_12_0 <= 16.9811202207155
 0 <= xp_13_0 <= 13.2075379494454
 0 <= xp_13_1 <= 3.30188448736136
 0 <= xp_14_0 <= 9.4339556781753
 0 <= xp_14_1 <= 6.2893037854502
 0 <= xp_15_0 <= 15.5660268689892
 0 <= xp_16_0 <= 14.9370964904442
 0 <= xp_17_0 <= 24.4496841734896
 0 <= xp_17_1 <= 3.50628162453785
 0 <= xp_17_2 <= 7.0125632490757
 0 <= xp_17_3 <= 5.23585063723793
 0 <= xp_17_4 <= 3.50628162453785
 0 <= xp_18_0 <= 24.0723259463626
 0 <= xp_18_1 <= 8.36477403464877
 0 <= xp_18_2 <= 3.12892339741084
 0 <= xp_18_3 <= 6.25784679482167
 0 <= xp_19_0 <= 29.2138370268187
 0 <= xp_19_1 <= 3.03458384062908
 0 <= xp_19_2 <= 3.03458384062908
 0 <= xp_19_3 <= 3.03458384062908
 0 <= xp_19_4 <= 3.03458384062908
 0 <= xp_20_0 <= 26.6981050409374
 0 <= xp_20_1 <= 2.87735124599283
 0 <= xp_20_2 <= 5.75470249198566
 0 <= xp_20_3 <= 5.23585063723793
 0 <= xp_21_0 <= 26.0062816245378
 0 <= xp_21_1 <= 7.767290175031
 0 <= xp_21_2 <= 2.53143953779307
 0 <= xp_21_3 <= 2.53143953779307
 0 <= xp_22_0 <= 20.1415006087549
 0 <= xp_22_1 <= 7.45282498575849
 0 <= xp_22_2 <= 9.66979933427904
 0 <= xp_23_0 <= 14.1037480313202
 0 <= xp_23_1 <= 20.9434025489517
 0 <= xp_23_2 <= 2.21697434852056

End
